GLPSOL: GLPK LP/MIP Solver, v4.55
Parameter(s) specified in the command line:
 -m tmp.mod
Reading model section from tmp.mod...
Reading data section from tmp.mod...
1495 lines were read
Generating obj...
Generating kirhoff...
Generating init_charge...
Generating batt_size...
Model has been successfully generated
GLPK Simplex Optimizer, v4.55
1243 rows, 2671 columns, 5652 non-zeros
Preprocessing...
1151 rows, 2587 columns, 5518 non-zeros
Scaling...
 A: min|aij| =  1.000e+00  max|aij| =  1.000e+00  ratio =  1.000e+00
Problem data seem to be well scaled
Constructing initial basis...
Size of triangular part is 1052
      0: obj =   0.000000000e+00  infeas =  1.023e+03 (99)
*   426: obj =   3.300000000e+01  infeas =  0.000e+00 (43)
*   500: obj =   1.300000000e+01  infeas =  0.000e+00 (43)
*   534: obj =   7.000000000e+00  infeas =  0.000e+00 (43)
OPTIMAL LP SOLUTION FOUND
Time used:   0.0 secs
Memory used: 5.0 Mb (5252858 bytes)
#OUTPUT:
7
0 0 -5 0 -5 0 0 0 -5 0 -4 0 0 0 0 0 -2 0 0 0 0 -2 0 -15 0 0 0 0 0 0 0 0 0 0 0 0 0 0 0 0 0 0 0 0 0 0 0 0 0 0 0 0 0 0 -2 0 0 0 0 0 0 0 0 0 -1 0 0 0 0 0 0 0 0 0 0 0 0 0 0 1 -2 0 0 0 0 0 0 0 0 -11 0 0 0 0 0 0 0 0 0 0 0 0 0 0 0 0 -1 0 0 
0 0 2 0 2 0 -2 0 2 0 2 0 -2 0 2 0 -2 0 0 0 0 -2 0 -8 0 3 0 2 -1 0 0 0 0 0 0 0 3 0 0 0 0 0 -10 0 0 0 0 0 0 0 0 0 0 0 8 0 0 0 0 0 0 0 0 0 0 0 0 0 0 0 0 0 0 0 0 0 0 0 0 0 -4 0 0 -2 -3 0 0 0 0 -8 0 0 0 0 0 0 0 -1 1 0 0 0 0 0 0 0 0 0 0 
0 0 -4 0 -4 0 0 0 -4 0 -4 0 0 0 0 0 -2 0 0 0 0 -2 0 -6 0 0 0 0 0 0 0 0 0 0 0 0 0 0 0 0 0 0 -8 0 0 0 0 0 0 0 0 0 0 0 6 0 0 0 0 0 0 0 0 0 0 0 0 0 0 0 0 0 0 0 0 0 0 0 0 0 -2 0 0 0 0 0 0 0 0 -6 0 0 0 0 0 0 0 0 0 0 0 0 0 0 0 0 0 0 0 
-2 0 -9 0 -10 -2 -1 0 -10 0 -5 1 5 0 0 0 -1 5 1 -11 0 -1 0 -11 0 0 0 0 -1 0 0 0 -14 0 0 -7 0 0 0 0 2 0 -1 -5 0 -2 0 0 0 0 0 0 0 0 0 11 0 -1 0 0 0 0 0 2 8 0 0 -13 0 0 0 0 0 2 0 0 0 -3 -1 -11 -11 1 -1 0 0 0 0 5 0 -11 -11 1 2 0 -2 13 0 -1 -1 0 0 -1 4 1 0 0 11 0 0 
0 0 0 0 0 0 -4 0 0 0 0 0 0 0 -1 0 0 0 0 0 0 0 -1 0 0 4 0 -1 0 0 0 0 0 0 0 -1 4 0 0 1 0 0 0 0 0 -1 0 0 0 0 0 0 0 0 0 0 0 0 0 0 0 0 0 0 0 0 0 0 -8 0 0 0 0 0 0 0 0 0 0 0 -5 0 0 1 -3 0 0 0 0 0 0 0 0 0 0 0 0 0 0 0 1 -1 0 0 0 0 0 0 0 
0 0 0 0 0 0 0 0 0 0 -4 0 -4 0 0 0 0 -4 0 -11 0 0 0 -12 0 0 0 0 0 0 0 0 0 0 0 -9 0 0 0 0 0 0 0 4 0 0 0 0 0 0 0 0 0 0 0 11 0 0 0 0 0 0 0 0 4 0 0 -11 0 -13 0 0 0 0 0 0 0 -8 0 -12 -9 0 0 0 0 0 0 -4 0 -12 -11 0 0 0 0 11 0 0 0 0 0 0 -11 0 0 0 12 0 0 
0 0 0 0 0 0 -5 0 0 0 0 0 4 -2 0 0 0 5 0 -11 0 0 -1 -3 0 0 0 0 -3 0 0 0 0 0 0 -5 0 0 -2 0 0 0 0 -5 0 0 0 0 0 0 0 0 0 0 0 11 0 0 0 0 0 0 0 0 0 0 0 -14 0 0 0 0 0 0 0 0 0 -3 0 -3 -10 0 0 0 0 0 0 5 -3 -3 -11 0 0 0 0 -3 0 0 0 0 0 0 3 0 0 0 3 0 0 
-2 0 -9 -2 0 1 -13 0 0 0 0 0 -4 -13 -1 0 2 -8 0 -3 0 2 1 -3 0 0 2 -1 0 0 0 0 0 0 0 -5 0 -1 -8 0 0 0 0 -5 0 0 2 0 2 0 0 0 1 0 2 3 0 0 1 0 0 1 0 -1 0 0 0 0 0 0 0 -1 0 0 0 0 0 0 0 0 -15 1 0 1 1 0 0 5 0 -3 -3 0 0 -1 1 0 0 0 0 0 0 0 0 0 0 0 0 0 0 
0 0 -1 0 -1 0 -1 0 0 0 0 0 0 0 0 0 0 0 0 0 0 0 0 0 0 0 0 0 -1 0 0 0 0 0 0 0 0 0 0 0 0 0 0 0 0 0 0 0 0 0 0 -1 0 0 0 0 0 0 0 -1 0 0 0 0 0 0 0 0 0 0 0 0 0 -1 0 0 0 0 0 0 -1 0 0 0 0 0 0 0 0 0 0 0 0 0 0 0 0 -1 0 0 0 0 0 0 0 0 0 0 0 
0 0 0 0 0 0 0 0 0 0 0 0 0 0 0 0 0 0 0 0 0 0 0 0 0 0 0 0 0 0 0 0 0 0 0 0 0 0 0 0 0 0 0 0 0 0 0 0 0 0 0 0 0 0 0 0 0 0 0 0 0 0 0 0 0 0 0 0 0 0 0 0 0 0 0 0 0 0 0 0 0 0 0 0 0 0 0 0 0 0 0 0 0 0 0 0 0 0 0 0 0 0 0 0 0 0 0 0 0 
-2 0 0 -2 0 0 0 0 0 0 0 0 0 0 0 0 0 0 0 0 0 0 0 0 0 0 0 0 0 0 0 0 0 0 0 0 0 0 0 0 0 0 0 0 0 0 0 0 0 0 0 0 0 0 0 0 0 0 0 0 0 0 0 0 0 0 0 0 0 0 0 0 0 0 0 0 0 0 0 0 -15 0 0 0 0 0 0 0 0 0 0 0 0 0 0 0 0 0 0 0 0 0 0 0 0 0 0 0 0 
#OUTPUT END
Model has been successfully processed
